set Progetti := P1 P2 P3 P4 P5 P6;
set Periodi := T1 T2 T3 T4 T5 T6;

param cashflow: T1 T2 T3 T4 T5 T6 :=
    P1 -2 -1  0  2  3  1
    P2 -3 -3 -1  4  3  4
    P3 -1 -3  1 -2  3  4
    P4  0 -4  0  5  1  0
    P5 -4  1  3  2  1  1
    P6 -2 -1  4 -2  2  2;

param budget := T1 7 T2 7 T3 4 T4 1 T5 0 T6 0;

param sconto := T1 1 T2 0.970874 T3 0.942595 T4 0.915141 T5 0.888487 T6 0.862608;